59
raw_data/mm-rcpsp/MMLIB50/J5012_4.mm
Time limit set to 60 seconds
Running CP solver
/home/omastto1/General-Optimization-Solver/src/solvers/mmrcpsp.py:42(stream:276:6): Warning: Cumulative expression 'pulse': height is zero, expression is zero everywhere.
                                                                                               VarCumulAtom_419 = pulse(task_0_mode_0, 0)
/home/omastto1/General-Optimization-Solver/src/solvers/mmrcpsp.py:42(stream:276:3909): Warning: Cumulative expression 'pulse': height is zero, expression is zero everywhere.
                                                                                                  VarCumulAtom_570 = pulse(task_51_mode_0, 0)
/home/omastto1/General-Optimization-Solver/src/solvers/mmrcpsp.py:42(stream:277:6): Warning: Cumulative expression 'pulse': height is zero, expression is zero everywhere.
                                                                                               VarCumulAtom_574 = pulse(task_0_mode_0, 0)
/home/omastto1/General-Optimization-Solver/src/solvers/mmrcpsp.py:42(stream:277:3906): Warning: Cumulative expression 'pulse': height is zero, expression is zero everywhere.
                                                                                                  VarCumulAtom_725 = pulse(task_51_mode_0, 0)
 ! --------------------------------------------------- CP Optimizer 20.1.0.0 --
 ! Minimization problem - 205 variables, 263 constraints
 ! TimeLimit            = 60
 ! Workers              = 14
 ! LogVerbosity         = Terse
 ! Initial process time : 0.00s (0.00s extraction + 0.00s propagation)
 !  . Log search space  : 520.0 (before), 520.0 (after)
 !  . Memory usage      : 1.3 MB (before), 1.3 MB (after)
 ! Using parallel search with 14 workers.
 ! ----------------------------------------------------------------------------
 !          Best Branches  Non-fixed    W       Branch decision
                        0        205                 -
 + New bound is 17
 ! Using iterative diving.
 ! Using temporal relaxation.
 *            47      112  0.83s        1      (gap is 63.83%)
 *            46      316  0.83s        1      (gap is 63.04%)
 *            45      424  0.83s        1      (gap is 62.22%)
 *            44      532  0.83s        1      (gap is 61.36%)
 *            42      640  0.83s        1      (gap is 59.52%)
 *            38      820  0.83s        1      (gap is 55.26%)
 *            37      994  0.83s        1      (gap is 54.05%)
 *            36     1181  0.83s        1      (gap is 52.78%)
 *            34     1378  0.83s        1      (gap is 50.00%)
 *            33     1660  0.83s        3      (gap is 48.48%)
 *            32     1615  0.83s        5      (gap is 46.88%)
 *            31     4458  1.55s        1      (gap is 45.16%)
 *            30     3448  1.55s        7      (gap is 43.33%)
 ! Using failure-directed search.
 *            29     4382  2.28s        4      (gap is 41.38%)
 *            28     4772  2.28s        4      (gap is 39.29%)
 *            27    32110  9.47s        7      (gap is 37.04%)
              27    14738          2    1   F    22 >= startOf(task_51)
 + New bound is 18 (gap is 33.33%)
 ! ----------------------------------------------------------------------------
 ! Search terminated by limit, 16 solutions found.
 ! Best objective         : 27 (gap is 33.33%)
 ! Best bound             : 18
 ! ----------------------------------------------------------------------------
 ! Number of branches     : 5160787
 ! Number of fails        : 981897
 ! Total memory usage     : 19.8 MB (19.6 MB CP Optimizer + 0.2 MB Concert)
 ! Time spent in solve    : 60.03s (60.03s engine + 0.00s extraction)
 ! Search speed (br. / s) : 85984.5
 ! ----------------------------------------------------------------------------
task_0: (start=0, end=0, size=0, length=0)
Task 0 is scheduled in mode 0 from 0 to 0
task_1: (start=1, end=4, size=3, length=3)
Task 1 is scheduled in mode 0 from 1 to 4
task_2: (start=2, end=3, size=1, length=1)
Task 2 is scheduled in mode 0 from 2 to 3
task_3: (start=0, end=1, size=1, length=1)
Task 3 is scheduled in mode 0 from 0 to 1
task_4: (start=0, end=1, size=1, length=1)
Task 4 is scheduled in mode 0 from 0 to 1
task_5: (start=2, end=11, size=9, length=9)
Task 5 is scheduled in mode 2 from 2 to 11
task_6: (start=0, end=7, size=7, length=7)
Task 6 is scheduled in mode 1 from 0 to 7
task_7: (start=0, end=4, size=4, length=4)
Task 7 is scheduled in mode 0 from 0 to 4
task_8: (start=2, end=7, size=5, length=5)
Task 8 is scheduled in mode 1 from 2 to 7
task_9: (start=5, end=7, size=2, length=2)
Task 9 is scheduled in mode 0 from 5 to 7
task_10: (start=7, end=15, size=8, length=8)
Task 10 is scheduled in mode 2 from 7 to 15
task_11: (start=3, end=10, size=7, length=7)
Task 11 is scheduled in mode 1 from 3 to 10
task_12: (start=1, end=11, size=10, length=10)
Task 12 is scheduled in mode 2 from 1 to 11
task_13: (start=10, end=15, size=5, length=5)
Task 13 is scheduled in mode 0 from 10 to 15
task_14: (start=12, end=15, size=3, length=3)
Task 14 is scheduled in mode 0 from 12 to 15
task_15: (start=0, end=2, size=2, length=2)
Task 15 is scheduled in mode 0 from 0 to 2
task_16: (start=4, end=8, size=4, length=4)
Task 16 is scheduled in mode 0 from 4 to 8
task_17: (start=0, end=2, size=2, length=2)
Task 17 is scheduled in mode 0 from 0 to 2
task_18: (start=8, end=12, size=4, length=4)
Task 18 is scheduled in mode 0 from 8 to 12
task_19: (start=15, end=18, size=3, length=3)
Task 19 is scheduled in mode 0 from 15 to 18
task_20: (start=4, end=5, size=1, length=1)
Task 20 is scheduled in mode 0 from 4 to 5
task_21: (start=7, end=15, size=8, length=8)
Task 21 is scheduled in mode 1 from 7 to 15
task_22: (start=11, end=15, size=4, length=4)
Task 22 is scheduled in mode 0 from 11 to 15
task_23: (start=16, end=22, size=6, length=6)
Task 23 is scheduled in mode 2 from 16 to 22
task_24: (start=17, end=18, size=1, length=1)
Task 24 is scheduled in mode 0 from 17 to 18
task_25: (start=15, end=22, size=7, length=7)
Task 25 is scheduled in mode 2 from 15 to 22
task_26: (start=9, end=10, size=1, length=1)
Task 26 is scheduled in mode 0 from 9 to 10
task_27: (start=18, end=19, size=1, length=1)
Task 27 is scheduled in mode 0 from 18 to 19
task_28: (start=18, end=23, size=5, length=5)
Task 28 is scheduled in mode 0 from 18 to 23
task_29: (start=18, end=21, size=3, length=3)
Task 29 is scheduled in mode 1 from 18 to 21
task_30: (start=15, end=25, size=10, length=10)
Task 30 is scheduled in mode 2 from 15 to 25
task_31: (start=18, end=22, size=4, length=4)
Task 31 is scheduled in mode 0 from 18 to 22
task_32: (start=19, end=21, size=2, length=2)
Task 32 is scheduled in mode 0 from 19 to 21
task_33: (start=22, end=23, size=1, length=1)
Task 33 is scheduled in mode 0 from 22 to 23
task_34: (start=19, end=23, size=4, length=4)
Task 34 is scheduled in mode 1 from 19 to 23
task_35: (start=15, end=18, size=3, length=3)
Task 35 is scheduled in mode 0 from 15 to 18
task_36: (start=21, end=24, size=3, length=3)
Task 36 is scheduled in mode 0 from 21 to 24
task_37: (start=23, end=27, size=4, length=4)
Task 37 is scheduled in mode 0 from 23 to 27
task_38: (start=23, end=25, size=2, length=2)
Task 38 is scheduled in mode 0 from 23 to 25
task_39: (start=25, end=27, size=2, length=2)
Task 39 is scheduled in mode 0 from 25 to 27
task_40: (start=25, end=27, size=2, length=2)
Task 40 is scheduled in mode 0 from 25 to 27
task_41: (start=23, end=27, size=4, length=4)
Task 41 is scheduled in mode 1 from 23 to 27
task_42: (start=22, end=26, size=4, length=4)
Task 42 is scheduled in mode 0 from 22 to 26
task_43: (start=24, end=25, size=1, length=1)
Task 43 is scheduled in mode 0 from 24 to 25
task_44: (start=16, end=17, size=1, length=1)
Task 44 is scheduled in mode 0 from 16 to 17
task_45: (start=15, end=16, size=1, length=1)
Task 45 is scheduled in mode 0 from 15 to 16
task_46: (start=21, end=23, size=2, length=2)
Task 46 is scheduled in mode 0 from 21 to 23
task_47: (start=22, end=25, size=3, length=3)
Task 47 is scheduled in mode 1 from 22 to 25
task_48: (start=7, end=9, size=2, length=2)
Task 48 is scheduled in mode 0 from 7 to 9
task_49: (start=26, end=27, size=1, length=1)
Task 49 is scheduled in mode 0 from 26 to 27
task_50: (start=10, end=14, size=4, length=4)
Task 50 is scheduled in mode 1 from 10 to 14
task_51: (start=27, end=27, size=0, length=0)
Task 51 is scheduled in mode 0 from 27 to 27
Feasible solution found
Objective value: 27
Solution is 58.8 % worse than the lower bound.
